solution status: optimal solution found
objective value:                                   15
x10                                                 1 	(obj:1)
x11                                                 1 	(obj:1)
x12                                                 1 	(obj:1)
x14                                                 1 	(obj:1)
x15                                                 1 	(obj:1)
x16                                                 1 	(obj:1)
x17                                                 1 	(obj:1)
x18                                                 1 	(obj:1)
x19                                                 1 	(obj:1)
x20                                                 1 	(obj:1)
x27                                                 1 	(obj:1)
x28                                                 1 	(obj:1)
x29                                                 1 	(obj:1)
x31                                                 1 	(obj:1)
x32                                                 1 	(obj:1)
bank.thing.devices[0].thingy.vpush_y                   21 	(obj:0)
bank.thing.devices[0].thingy.vpush_z                   19 	(obj:0)
bank.thing.devices[0].thingy.vcell_in_y                   19 	(obj:0)
bank.thing.devices[0].thingy.vcell_in_z                   19 	(obj:0)
bank.thing.devices[0].thingy.vbead_in_y                   20 	(obj:0)
bank.thing.devices[0].thingy.vbead_in_z                   18 	(obj:0)
bank.thing.devices[0].thingy.vlysis_in_y                   20 	(obj:0)
bank.thing.devices[0].thingy.vlysis_in_z                   19 	(obj:0)
